p cnf 779 2274
r 0.5 1 2 3 4 5 6 7 8 9 10 11 12 13 14 15 16 17 18 19 20 21 22 23 24 25 0
e 26 27 28 29 30 31 32 33 34 35 36 37 38 39 40 41 42 43 44 45 46 47 48 49 50 51 52 53 54 55 56 57 58 59 60 61 62 63 64 65 66 67 68 69 70 71 72 73 74 75 76 77 78 79 80 81 82 83 84 85 86 87 88 89 90 91 92 93 94 95 96 97 98 99 100 101 102 103 104 105 106 107 108 109 110 111 112 113 114 115 116 117 118 119 120 121 122 123 124 125 126 127 128 129 130 131 132 133 134 135 136 137 138 139 140 141 142 143 144 145 146 147 148 149 150 151 152 153 154 155 156 157 158 159 160 161 162 163 164 165 166 167 168 169 170 171 172 173 174 175 176 177 178 179 180 181 182 183 184 185 186 187 188 189 190 191 192 193 194 195 196 197 198 199 200 201 202 203 204 205 206 207 208 209 210 211 212 213 214 215 216 217 218 219 220 221 222 223 224 225 226 227 228 229 230 231 232 233 234 235 236 237 238 239 240 241 242 243 244 245 246 247 248 249 250 251 252 253 254 255 256 257 258 259 260 261 262 263 264 265 266 267 268 269 270 271 272 273 274 275 276 277 278 279 280 281 282 283 284 285 286 287 288 289 290 291 292 293 294 295 296 297 298 299 300 301 302 303 304 305 306 307 308 309 310 311 312 313 314 315 316 317 318 319 320 321 322 323 324 325 326 327 328 329 330 331 332 333 334 335 336 337 338 339 340 341 342 343 344 345 346 347 348 349 350 351 352 353 354 355 356 357 358 359 360 361 362 363 364 365 366 367 368 369 370 371 372 373 374 375 376 377 378 379 380 381 382 383 384 385 386 387 388 389 390 391 392 393 394 395 396 397 398 399 400 401 402 403 404 405 406 407 408 409 410 411 412 413 414 415 416 417 418 419 420 421 422 423 424 425 426 427 428 429 430 431 432 433 434 435 436 437 438 439 440 441 442 443 444 445 446 447 448 449 450 451 452 453 454 455 456 457 458 459 460 461 462 463 464 465 466 467 468 469 470 471 472 473 474 475 476 477 478 479 480 481 482 483 484 485 486 487 488 489 490 491 492 493 494 495 496 497 498 499 500 501 502 503 504 505 506 507 508 509 510 511 512 513 514 515 516 517 518 519 520 521 522 523 524 525 526 527 528 529 530 531 532 533 534 535 536 537 538 539 540 541 542 543 544 545 546 547 548 549 550 551 552 553 554 555 556 557 558 559 560 561 562 563 564 565 566 567 568 569 570 571 572 573 574 575 576 577 578 579 580 581 582 583 584 585 586 587 588 589 590 591 592 593 594 595 596 597 598 599 600 601 602 603 604 605 606 607 608 609 610 611 612 613 614 615 616 617 618 619 620 621 622 623 624 625 626 627 628 629 630 631 632 633 634 635 636 637 638 639 640 641 642 643 644 645 646 647 648 649 650 651 652 653 654 655 656 657 658 659 660 661 662 663 664 665 666 667 668 669 670 671 672 673 674 675 676 677 678 679 680 681 682 683 684 685 686 687 688 689 690 691 692 693 694 695 696 697 698 699 700 701 702 703 704 705 706 707 708 709 710 711 712 713 714 715 716 717 718 719 720 721 722 723 724 725 726 727 728 729 730 731 732 733 734 735 736 737 738 739 740 741 742 743 744 745 746 747 748 749 750 751 752 753 754 755 756 757 758 759 760 761 762 763 764 765 766 767 768 769 770 771 772 773 774 775 776 777 778 779 0
-779 -26 1 0
-778 -27 2 0
-777 -28 3 0
-776 -29 4 0
-775 -30 5 0
-774 -31 6 0
-773 -32 7 0
-772 -33 8 0
-771 -34 9 0
-770 -35 10 0
-769 -36 11 0
-768 -37 12 0
-767 -38 13 0
-766 -39 14 0
-765 -40 15 0
-764 -41 16 0
-763 -42 17 0
-762 -43 18 0
-761 -44 19 0
-760 -45 20 0
-759 -46 21 0
-758 -47 22 0
-757 -48 23 0
-756 -49 24 0
-755 -50 25 0
-754 1 0
-754 -26 0
-753 26 0
-753 -1 0
-752 2 0
-752 -27 0
-751 27 0
-751 -2 0
-750 3 0
-750 -28 0
-749 28 0
-749 -3 0
-748 4 0
-748 -29 0
-747 29 0
-747 -4 0
-746 5 0
-746 -30 0
-745 30 0
-745 -5 0
-744 6 0
-744 -31 0
-743 31 0
-743 -6 0
-742 7 0
-742 -32 0
-741 32 0
-741 -7 0
-740 8 0
-740 -33 0
-739 33 0
-739 -8 0
-738 9 0
-738 -34 0
-737 34 0
-737 -9 0
-736 10 0
-736 -35 0
-735 35 0
-735 -10 0
-734 11 0
-734 -36 0
-733 36 0
-733 -11 0
-732 12 0
-732 -37 0
-731 37 0
-731 -12 0
-730 13 0
-730 -38 0
-729 38 0
-729 -13 0
-728 14 0
-728 -39 0
-727 39 0
-727 -14 0
-726 15 0
-726 -40 0
-725 40 0
-725 -15 0
-724 16 0
-724 -41 0
-723 41 0
-723 -16 0
-722 17 0
-722 -42 0
-721 42 0
-721 -17 0
-720 18 0
-720 -43 0
-719 43 0
-719 -18 0
-718 19 0
-718 -44 0
-717 44 0
-717 -19 0
-716 20 0
-716 -45 0
-715 45 0
-715 -20 0
-714 21 0
-714 -46 0
-713 46 0
-713 -21 0
-712 22 0
-712 -47 0
-711 47 0
-711 -22 0
-710 23 0
-710 -48 0
-709 48 0
-709 -23 0
-708 24 0
-708 -49 0
-707 49 0
-707 -24 0
-706 25 0
-706 -50 0
-705 50 0
-705 -25 0
-704 754 753 752 751 750 749 748 747 746 745 744 743 742 741 740 739 738 737 736 735 734 733 732 731 730 729 728 727 726 725 724 723 722 721 720 719 718 717 716 715 714 713 712 711 710 709 708 707 706 705 0
-703 10 0
-703 2 0
-703 25 0
-703 -23 0
-702 6 0
-702 8 0
-702 2 0
-702 -23 0
-701 2 0
-701 3 0
-701 17 0
-701 9 0
-701 -23 0
-700 24 0
-700 7 0
-700 13 0
-700 5 0
-700 -23 0
-699 12 0
-699 2 0
-699 5 0
-699 15 0
-699 -23 0
-698 20 0
-698 1 0
-698 16 0
-698 4 0
-698 -23 0
-697 11 0
-697 17 0
-697 2 0
-697 -23 0
-696 9 0
-696 8 0
-696 21 0
-696 17 0
-696 -23 0
-695 17 0
-695 24 0
-695 13 0
-695 9 0
-695 -23 0
-694 25 0
-694 21 0
-694 18 0
-694 1 0
-694 -23 0
-693 10 0
-693 14 0
-693 19 0
-693 16 0
-693 -20 0
-692 7 0
-692 12 0
-692 4 0
-692 16 0
-692 -20 0
-691 2 0
-691 15 0
-691 4 0
-691 18 0
-691 -20 0
-690 15 0
-690 11 0
-690 16 0
-690 24 0
-690 -20 0
-689 22 0
-689 17 0
-689 16 0
-689 14 0
-689 -20 0
-688 9 0
-688 7 0
-688 21 0
-688 -20 0
-687 24 0
-687 12 0
-687 2 0
-687 -20 0
-686 19 0
-686 15 0
-686 1 0
-686 -20 0
-685 22 0
-685 25 0
-685 21 0
-685 5 0
-685 -20 0
-684 10 0
-684 3 0
-684 8 0
-684 -20 0
-683 3 0
-683 12 0
-683 4 0
-683 19 0
-683 -25 0
-682 19 0
-682 18 0
-682 2 0
-682 22 0
-682 -25 0
-681 5 0
-681 17 0
-681 20 0
-681 -25 0
-680 19 0
-680 23 0
-680 13 0
-680 -25 0
-679 20 0
-679 23 0
-679 19 0
-679 22 0
-679 -25 0
-678 15 0
-678 23 0
-678 4 0
-678 18 0
-678 -25 0
-677 8 0
-677 5 0
-677 1 0
-677 10 0
-677 -25 0
-676 16 0
-676 15 0
-676 14 0
-676 -25 0
-675 20 0
-675 7 0
-675 8 0
-675 18 0
-675 -25 0
-674 19 0
-674 1 0
-674 7 0
-674 17 0
-674 -25 0
-673 24 0
-673 11 0
-673 7 0
-673 14 0
-673 -16 0
-672 18 0
-672 12 0
-672 14 0
-672 8 0
-672 -16 0
-671 12 0
-671 19 0
-671 14 0
-671 23 0
-671 -16 0
-670 5 0
-670 14 0
-670 22 0
-670 23 0
-670 -16 0
-669 18 0
-669 10 0
-669 19 0
-669 21 0
-669 -16 0
-668 22 0
-668 11 0
-668 6 0
-668 21 0
-668 -16 0
-667 10 0
-667 5 0
-667 4 0
-667 9 0
-667 -16 0
-666 6 0
-666 22 0
-666 17 0
-666 15 0
-666 -16 0
-665 19 0
-665 12 0
-665 24 0
-665 20 0
-665 -16 0
-664 12 0
-664 25 0
-664 13 0
-664 -16 0
-663 4 0
-663 9 0
-663 20 0
-663 22 0
-663 -2 0
-662 12 0
-662 8 0
-662 1 0
-662 20 0
-662 -2 0
-661 25 0
-661 22 0
-661 7 0
-661 12 0
-661 -2 0
-660 1 0
-660 19 0
-660 11 0
-660 -2 0
-659 8 0
-659 24 0
-659 6 0
-659 11 0
-659 -2 0
-658 17 0
-658 16 0
-658 25 0
-658 22 0
-658 -2 0
-657 10 0
-657 6 0
-657 8 0
-657 23 0
-657 -2 0
-656 1 0
-656 25 0
-656 12 0
-656 13 0
-656 -2 0
-655 3 0
-655 22 0
-655 19 0
-655 -2 0
-654 21 0
-654 8 0
-654 24 0
-654 23 0
-654 -2 0
-653 8 0
-653 19 0
-653 12 0
-653 4 0
-653 -15 0
-652 25 0
-652 8 0
-652 3 0
-652 -15 0
-651 4 0
-651 6 0
-651 8 0
-651 16 0
-651 -15 0
-650 14 0
-650 5 0
-650 6 0
-650 -15 0
-649 24 0
-649 7 0
-649 18 0
-649 -15 0
-648 17 0
-648 9 0
-648 11 0
-648 5 0
-648 -15 0
-647 20 0
-647 12 0
-647 3 0
-647 -15 0
-646 19 0
-646 5 0
-646 3 0
-646 4 0
-646 -15 0
-645 6 0
-645 22 0
-645 13 0
-645 7 0
-645 -15 0
-644 3 0
-644 22 0
-644 9 0
-644 -15 0
-643 19 0
-643 15 0
-643 17 0
-643 -10 0
-642 15 0
-642 4 0
-642 13 0
-642 25 0
-642 -10 0
-641 18 0
-641 1 0
-641 12 0
-641 3 0
-641 -10 0
-640 2 0
-640 13 0
-640 22 0
-640 14 0
-640 -10 0
-639 24 0
-639 13 0
-639 18 0
-639 19 0
-639 -10 0
-638 6 0
-638 2 0
-638 13 0
-638 12 0
-638 -10 0
-637 16 0
-637 21 0
-637 15 0
-637 17 0
-637 -10 0
-636 16 0
-636 8 0
-636 20 0
-636 4 0
-636 -10 0
-635 13 0
-635 19 0
-635 2 0
-635 20 0
-635 -10 0
-634 25 0
-634 9 0
-634 13 0
-634 20 0
-634 -10 0
-633 19 0
-633 23 0
-633 7 0
-633 17 0
-633 -11 0
-632 23 0
-632 24 0
-632 1 0
-632 22 0
-632 -11 0
-631 7 0
-631 21 0
-631 3 0
-631 12 0
-631 -11 0
-630 10 0
-630 17 0
-630 8 0
-630 -11 0
-629 9 0
-629 22 0
-629 20 0
-629 17 0
-629 -11 0
-628 18 0
-628 23 0
-628 25 0
-628 3 0
-628 -11 0
-627 20 0
-627 5 0
-627 12 0
-627 18 0
-627 -11 0
-626 25 0
-626 1 0
-626 5 0
-626 -11 0
-625 1 0
-625 19 0
-625 10 0
-625 17 0
-625 -11 0
-624 14 0
-624 4 0
-624 10 0
-624 13 0
-624 -11 0
-623 8 0
-623 7 0
-623 3 0
-623 13 0
-623 -19 0
-622 12 0
-622 7 0
-622 18 0
-622 22 0
-622 -19 0
-621 22 0
-621 5 0
-621 15 0
-621 6 0
-621 -19 0
-620 21 0
-620 18 0
-620 8 0
-620 3 0
-620 -19 0
-619 13 0
-619 18 0
-619 23 0
-619 4 0
-619 -19 0
-618 20 0
-618 22 0
-618 5 0
-618 12 0
-618 -19 0
-617 13 0
-617 12 0
-617 8 0
-617 6 0
-617 -19 0
-616 12 0
-616 17 0
-616 3 0
-616 10 0
-616 -19 0
-615 12 0
-615 11 0
-615 2 0
-615 8 0
-615 -19 0
-614 11 0
-614 8 0
-614 20 0
-614 12 0
-614 -19 0
-613 20 0
-613 19 0
-613 9 0
-613 8 0
-613 -18 0
-612 17 0
-612 10 0
-612 2 0
-612 9 0
-612 -18 0
-611 9 0
-611 15 0
-611 3 0
-611 -18 0
-610 3 0
-610 25 0
-610 22 0
-610 21 0
-610 -18 0
-609 6 0
-609 14 0
-609 11 0
-609 3 0
-609 -18 0
-608 6 0
-608 23 0
-608 14 0
-608 9 0
-608 -18 0
-607 2 0
-607 10 0
-607 3 0
-607 1 0
-607 -18 0
-606 11 0
-606 22 0
-606 12 0
-606 -18 0
-605 2 0
-605 11 0
-605 21 0
-605 5 0
-605 -18 0
-604 8 0
-604 16 0
-604 23 0
-604 12 0
-604 -18 0
-603 6 0
-603 12 0
-603 22 0
-603 4 0
-603 -5 0
-602 2 0
-602 4 0
-602 12 0
-602 -5 0
-601 11 0
-601 18 0
-601 20 0
-601 -5 0
-600 22 0
-600 1 0
-600 17 0
-600 9 0
-600 -5 0
-599 23 0
-599 11 0
-599 14 0
-599 -5 0
-598 16 0
-598 25 0
-598 15 0
-598 21 0
-598 -5 0
-597 9 0
-597 23 0
-597 6 0
-597 -5 0
-596 1 0
-596 13 0
-596 9 0
-596 11 0
-596 -5 0
-595 8 0
-595 24 0
-595 19 0
-595 18 0
-595 -5 0
-594 12 0
-594 9 0
-594 6 0
-594 7 0
-594 -5 0
-593 23 0
-593 10 0
-593 3 0
-593 17 0
-593 -22 0
-592 13 0
-592 3 0
-592 10 0
-592 -22 0
-591 23 0
-591 11 0
-591 18 0
-591 16 0
-591 -22 0
-590 21 0
-590 13 0
-590 6 0
-590 25 0
-590 -22 0
-589 4 0
-589 9 0
-589 17 0
-589 -22 0
-588 11 0
-588 10 0
-588 25 0
-588 4 0
-588 -22 0
-587 13 0
-587 21 0
-587 18 0
-587 3 0
-587 -22 0
-586 2 0
-586 8 0
-586 10 0
-586 -22 0
-585 8 0
-585 2 0
-585 25 0
-585 7 0
-585 -22 0
-584 18 0
-584 1 0
-584 4 0
-584 12 0
-584 -22 0
-583 16 0
-583 10 0
-583 14 0
-583 -21 0
-582 4 0
-582 5 0
-582 9 0
-582 -21 0
-581 11 0
-581 1 0
-581 7 0
-581 8 0
-581 -21 0
-580 13 0
-580 7 0
-580 22 0
-580 19 0
-580 -21 0
-579 10 0
-579 16 0
-579 8 0
-579 -21 0
-578 3 0
-578 17 0
-578 20 0
-578 4 0
-578 -21 0
-577 7 0
-577 6 0
-577 19 0
-577 11 0
-577 -21 0
-576 6 0
-576 16 0
-576 5 0
-576 4 0
-576 -21 0
-575 22 0
-575 4 0
-575 14 0
-575 8 0
-575 -21 0
-574 10 0
-574 2 0
-574 8 0
-574 13 0
-574 -21 0
-573 16 0
-573 5 0
-573 19 0
-573 1 0
-573 -8 0
-572 22 0
-572 16 0
-572 15 0
-572 2 0
-572 -8 0
-571 23 0
-571 19 0
-571 25 0
-571 7 0
-571 -8 0
-570 7 0
-570 4 0
-570 11 0
-570 2 0
-570 -8 0
-569 12 0
-569 21 0
-569 1 0
-569 17 0
-569 -8 0
-568 14 0
-568 2 0
-568 1 0
-568 4 0
-568 -8 0
-567 3 0
-567 19 0
-567 10 0
-567 7 0
-567 -8 0
-566 13 0
-566 2 0
-566 25 0
-566 10 0
-566 -8 0
-565 21 0
-565 3 0
-565 23 0
-565 -8 0
-564 17 0
-564 15 0
-564 -8 0
-563 8 0
-563 18 0
-563 12 0
-563 22 0
-563 -24 0
-562 18 0
-562 25 0
-562 1 0
-562 15 0
-562 -24 0
-561 9 0
-561 18 0
-561 14 0
-561 -24 0
-560 12 0
-560 19 0
-560 20 0
-560 6 0
-560 -24 0
-559 10 0
-559 7 0
-559 14 0
-559 19 0
-559 -24 0
-558 10 0
-558 20 0
-558 3 0
-558 -24 0
-557 4 0
-557 21 0
-557 1 0
-557 -24 0
-556 25 0
-556 19 0
-556 8 0
-556 9 0
-556 -24 0
-555 1 0
-555 9 0
-555 19 0
-555 14 0
-555 -24 0
-554 11 0
-554 17 0
-554 4 0
-554 -24 0
-553 5 0
-553 17 0
-553 21 0
-553 6 0
-553 -9 0
-552 6 0
-552 18 0
-552 20 0
-552 12 0
-552 -9 0
-551 18 0
-551 21 0
-551 14 0
-551 23 0
-551 -9 0
-550 11 0
-550 3 0
-550 8 0
-550 17 0
-550 -9 0
-549 10 0
-549 14 0
-549 23 0
-549 13 0
-549 -9 0
-548 24 0
-548 17 0
-548 22 0
-548 14 0
-548 -9 0
-547 17 0
-547 13 0
-547 1 0
-547 -9 0
-546 17 0
-546 19 0
-546 22 0
-546 11 0
-546 -9 0
-545 16 0
-545 18 0
-545 12 0
-545 11 0
-545 -9 0
-544 25 0
-544 13 0
-544 16 0
-544 -9 0
-543 2 0
-543 22 0
-543 5 0
-543 13 0
-543 -3 0
-542 23 0
-542 11 0
-542 8 0
-542 19 0
-542 -3 0
-541 19 0
-541 8 0
-541 2 0
-541 14 0
-541 -3 0
-540 11 0
-540 1 0
-540 20 0
-540 -3 0
-539 8 0
-539 7 0
-539 13 0
-539 5 0
-539 -3 0
-538 15 0
-538 18 0
-538 1 0
-538 5 0
-538 -3 0
-537 12 0
-537 5 0
-537 1 0
-537 7 0
-537 -3 0
-536 9 0
-536 8 0
-536 25 0
-536 13 0
-536 -3 0
-535 23 0
-535 9 0
-535 17 0
-535 25 0
-535 -3 0
-534 14 0
-534 11 0
-534 5 0
-534 -3 0
-533 7 0
-533 3 0
-533 10 0
-533 11 0
-533 -1 0
-532 19 0
-532 11 0
-532 5 0
-532 14 0
-532 -1 0
-531 10 0
-531 19 0
-531 18 0
-531 8 0
-531 -1 0
-530 12 0
-530 16 0
-530 14 0
-530 8 0
-530 -1 0
-529 9 0
-529 3 0
-529 22 0
-529 11 0
-529 -1 0
-528 11 0
-528 9 0
-528 2 0
-528 18 0
-528 -1 0
-527 15 0
-527 4 0
-527 22 0
-527 10 0
-527 -1 0
-526 19 0
-526 4 0
-526 8 0
-526 15 0
-526 -1 0
-525 24 0
-525 7 0
-525 14 0
-525 -1 0
-524 10 0
-524 23 0
-524 8 0
-524 -1 0
-523 19 0
-523 18 0
-523 20 0
-523 16 0
-523 -12 0
-522 24 0
-522 23 0
-522 1 0
-522 15 0
-522 -12 0
-521 17 0
-521 15 0
-521 21 0
-521 16 0
-521 -12 0
-520 6 0
-520 24 0
-520 16 0
-520 1 0
-520 -12 0
-519 23 0
-519 18 0
-519 25 0
-519 -12 0
-518 23 0
-518 11 0
-518 3 0
-518 7 0
-518 -12 0
-517 14 0
-517 9 0
-517 15 0
-517 -12 0
-516 18 0
-516 25 0
-516 7 0
-516 8 0
-516 -12 0
-515 1 0
-515 14 0
-515 15 0
-515 -12 0
-514 6 0
-514 5 0
-514 8 0
-514 4 0
-514 -12 0
-513 11 0
-513 21 0
-513 -17 0
-512 20 0
-512 24 0
-512 7 0
-512 16 0
-512 -17 0
-511 24 0
-511 14 0
-511 21 0
-511 11 0
-511 -17 0
-510 4 0
-510 22 0
-510 23 0
-510 16 0
-510 -17 0
-509 5 0
-509 12 0
-509 7 0
-509 -17 0
-508 6 0
-508 5 0
-508 24 0
-508 -17 0
-507 1 0
-507 9 0
-507 3 0
-507 25 0
-507 -17 0
-506 2 0
-506 24 0
-506 22 0
-506 8 0
-506 -17 0
-505 2 0
-505 14 0
-505 24 0
-505 6 0
-505 -17 0
-504 4 0
-504 21 0
-504 7 0
-504 10 0
-504 -17 0
-503 17 0
-503 12 0
-503 4 0
-503 -6 0
-502 15 0
-502 21 0
-502 7 0
-502 2 0
-502 -6 0
-501 5 0
-501 12 0
-501 24 0
-501 20 0
-501 -6 0
-500 24 0
-500 10 0
-500 1 0
-500 15 0
-500 -6 0
-499 5 0
-499 13 0
-499 7 0
-499 -6 0
-498 18 0
-498 23 0
-498 4 0
-498 -6 0
-497 4 0
-497 13 0
-497 17 0
-497 5 0
-497 -6 0
-496 12 0
-496 25 0
-496 2 0
-496 9 0
-496 -6 0
-495 7 0
-495 20 0
-495 8 0
-495 15 0
-495 -6 0
-494 8 0
-494 18 0
-494 23 0
-494 -6 0
-493 10 0
-493 14 0
-493 25 0
-493 6 0
-493 -13 0
-492 11 0
-492 17 0
-492 23 0
-492 12 0
-492 -13 0
-491 1 0
-491 14 0
-491 16 0
-491 -13 0
-490 20 0
-490 9 0
-490 15 0
-490 14 0
-490 -13 0
-489 8 0
-489 20 0
-489 18 0
-489 19 0
-489 -13 0
-488 16 0
-488 3 0
-488 4 0
-488 20 0
-488 -13 0
-487 1 0
-487 8 0
-487 10 0
-487 15 0
-487 -13 0
-486 20 0
-486 1 0
-486 19 0
-486 -13 0
-485 3 0
-485 5 0
-485 15 0
-485 14 0
-485 -13 0
-484 10 0
-484 19 0
-484 17 0
-484 23 0
-484 -13 0
-483 11 0
-483 22 0
-483 15 0
-483 19 0
-483 -7 0
-482 16 0
-482 5 0
-482 12 0
-482 -7 0
-481 22 0
-481 17 0
-481 20 0
-481 3 0
-481 -7 0
-480 5 0
-480 14 0
-480 1 0
-480 2 0
-480 -7 0
-479 24 0
-479 23 0
-479 5 0
-479 3 0
-479 -7 0
-478 12 0
-478 6 0
-478 20 0
-478 22 0
-478 -7 0
-477 15 0
-477 19 0
-477 21 0
-477 8 0
-477 -7 0
-476 3 0
-476 19 0
-476 8 0
-476 23 0
-476 -7 0
-475 13 0
-475 6 0
-475 18 0
-475 14 0
-475 -7 0
-474 15 0
-474 17 0
-474 1 0
-474 12 0
-474 -7 0
-473 9 0
-473 6 0
-473 22 0
-473 16 0
-473 -4 0
-472 17 0
-472 2 0
-472 11 0
-472 22 0
-472 -4 0
-471 10 0
-471 17 0
-471 2 0
-471 20 0
-471 -4 0
-470 24 0
-470 11 0
-470 9 0
-470 13 0
-470 -4 0
-469 9 0
-469 25 0
-469 22 0
-469 11 0
-469 -4 0
-468 22 0
-468 20 0
-468 11 0
-468 -4 0
-467 13 0
-467 12 0
-467 18 0
-467 16 0
-467 -4 0
-466 24 0
-466 16 0
-466 11 0
-466 14 0
-466 -4 0
-465 5 0
-465 6 0
-465 3 0
-465 -4 0
-464 1 0
-464 10 0
-464 7 0
-464 24 0
-464 -4 0
-463 21 0
-463 20 0
-463 15 0
-463 17 0
-463 -14 0
-462 3 0
-462 25 0
-462 5 0
-462 6 0
-462 -14 0
-461 8 0
-461 1 0
-461 19 0
-461 9 0
-461 -14 0
-460 20 0
-460 12 0
-460 22 0
-460 6 0
-460 -14 0
-459 25 0
-459 1 0
-459 18 0
-459 11 0
-459 -14 0
-458 9 0
-458 12 0
-458 10 0
-458 23 0
-458 -14 0
-457 16 0
-457 25 0
-457 3 0
-457 4 0
-457 -14 0
-456 5 0
-456 3 0
-456 21 0
-456 4 0
-456 -14 0
-455 1 0
-455 17 0
-455 19 0
-455 -14 0
-454 13 0
-454 2 0
-454 15 0
-454 21 0
-454 -14 0
-453 -4 0
-453 -24 0
-453 -25 0
-453 -23 0
-452 -11 0
-452 -9 0
-452 -7 0
-452 -18 0
-451 -11 0
-451 -10 0
-451 -12 0
-451 -23 0
-450 -23 0
-450 -15 0
-449 -2 0
-449 -17 0
-449 -16 0
-449 -3 0
-448 -5 0
-448 -1 0
-448 -3 0
-448 -25 0
-447 -21 0
-447 -22 0
-447 -5 0
-446 -9 0
-446 -1 0
-446 -7 0
-446 -24 0
-445 -19 0
-445 -20 0
-445 -3 0
-445 -9 0
-444 -1 0
-444 -8 0
-444 -20 0
-443 -13 0
-443 -6 0
-443 -16 0
-443 -4 0
-442 -7 0
-442 -10 0
-442 -2 0
-442 -20 0
-441 -23 0
-441 -18 0
-441 -17 0
-441 -5 0
-440 -2 0
-440 -22 0
-440 -24 0
-440 -12 0
-439 -7 0
-439 -16 0
-439 -24 0
-438 -7 0
-438 -20 0
-438 -15 0
-438 -10 0
-437 -25 0
-437 -13 0
-436 -18 0
-436 -4 0
-436 -23 0
-436 -10 0
-435 -6 0
-435 -16 0
-435 -2 0
-435 -1 0
-434 -18 0
-434 -5 0
-434 -6 0
-434 -22 0
-433 -6 0
-433 -24 0
-433 -4 0
-433 -14 0
-432 -23 0
-432 -21 0
-432 -17 0
-432 -14 0
-431 -1 0
-431 -7 0
-431 -24 0
-430 -23 0
-430 -17 0
-430 -4 0
-430 -15 0
-429 -12 0
-429 -13 0
-429 -16 0
-429 -25 0
-428 -13 0
-428 -16 0
-428 -19 0
-428 -3 0
-427 -18 0
-427 -9 0
-427 -5 0
-427 -6 0
-426 -23 0
-426 -15 0
-426 -18 0
-426 -7 0
-425 -6 0
-425 -11 0
-425 -4 0
-425 -7 0
-424 -7 0
-424 -1 0
-424 -24 0
-423 -9 0
-423 -8 0
-423 -19 0
-423 -1 0
-422 -18 0
-422 -10 0
-422 -7 0
-422 -25 0
-421 -15 0
-421 -20 0
-421 -11 0
-420 -10 0
-420 -9 0
-420 -6 0
-420 -1 0
-419 -11 0
-419 -15 0
-419 -9 0
-419 -19 0
-418 -22 0
-418 -14 0
-418 -15 0
-418 -10 0
-417 -19 0
-417 -2 0
-417 -15 0
-416 -13 0
-416 -25 0
-416 -7 0
-416 -8 0
-415 -1 0
-415 -15 0
-415 -10 0
-415 -25 0
-414 -24 0
-414 -15 0
-414 -10 0
-414 -17 0
-413 -10 0
-413 -8 0
-413 -6 0
-413 -9 0
-412 -10 0
-412 -9 0
-412 -11 0
-412 -8 0
-411 -13 0
-411 -14 0
-411 -4 0
-411 -18 0
-410 -4 0
-410 -10 0
-410 -9 0
-410 -11 0
-409 -5 0
-409 -6 0
-409 -24 0
-409 -19 0
-408 -23 0
-408 -22 0
-408 -14 0
-408 -1 0
-407 -17 0
-407 -11 0
-407 -13 0
-407 -19 0
-406 -21 0
-406 -15 0
-406 -25 0
-406 -13 0
-405 -12 0
-405 -14 0
-405 -22 0
-405 -20 0
-404 -9 0
-404 -6 0
-404 -8 0
-403 -6 0
-403 -8 0
-403 -7 0
-402 -13 0
-402 -24 0
-402 -25 0
-402 -10 0
-401 -22 0
-401 -1 0
-401 -8 0
-400 -15 0
-400 -12 0
-400 -10 0
-400 -14 0
-399 -23 0
-399 -2 0
-399 -11 0
-399 -21 0
-398 -18 0
-398 -22 0
-398 -5 0
-398 -15 0
-397 -22 0
-397 -13 0
-397 -10 0
-397 -16 0
-396 -1 0
-396 -4 0
-396 -3 0
-396 -24 0
-395 -24 0
-395 -9 0
-395 -18 0
-395 -5 0
-394 -10 0
-394 -24 0
-394 -17 0
-394 -1 0
-393 -19 0
-393 -22 0
-393 -10 0
-393 -8 0
-392 -2 0
-392 -24 0
-392 -9 0
-392 -10 0
-391 -6 0
-391 -7 0
-391 -11 0
-390 -22 0
-390 -10 0
-390 -21 0
-390 -7 0
-389 -25 0
-389 -6 0
-389 -23 0
-389 -13 0
-388 -17 0
-388 -12 0
-388 -5 0
-388 -19 0
-387 -19 0
-387 -6 0
-387 -12 0
-387 -24 0
-386 -18 0
-386 -21 0
-386 -19 0
-386 -17 0
-385 -23 0
-385 -3 0
-385 -11 0
-385 -10 0
-384 -15 0
-384 -7 0
-384 -21 0
-384 -16 0
-383 -7 0
-383 -19 0
-383 -5 0
-382 -3 0
-382 -7 0
-382 -15 0
-382 -12 0
-381 -1 0
-381 -11 0
-381 -8 0
-380 -23 0
-380 -2 0
-380 -13 0
-380 -5 0
-379 -20 0
-379 -1 0
-379 -21 0
-378 -35 -27 -50 48 0
-377 -31 -33 -27 48 0
-376 -27 -28 -42 -34 48 0
-375 -49 -32 -38 -30 48 0
-374 -37 -27 -30 -40 48 0
-373 -45 -26 -41 -29 48 0
-372 -36 -42 -27 48 0
-371 -34 -33 -46 -42 48 0
-370 -42 -49 -38 -34 48 0
-369 -50 -46 -43 -26 48 0
-368 -35 -39 -44 -41 45 0
-367 -32 -37 -29 -41 45 0
-366 -27 -40 -29 -43 45 0
-365 -40 -36 -41 -49 45 0
-364 -47 -42 -41 -39 45 0
-363 -34 -32 -46 45 0
-362 -49 -37 -27 45 0
-361 -44 -40 -26 45 0
-360 -47 -50 -46 -30 45 0
-359 -35 -28 -33 45 0
-358 -28 -37 -29 -44 50 0
-357 -44 -43 -27 -47 50 0
-356 -30 -42 -45 50 0
-355 -44 -48 -38 50 0
-354 -45 -48 -44 -47 50 0
-353 -40 -48 -29 -43 50 0
-352 -33 -30 -26 -35 50 0
-351 -41 -40 -39 50 0
-350 -45 -32 -33 -43 50 0
-349 -44 -26 -32 -42 50 0
-348 -49 -36 -32 -39 41 0
-347 -43 -37 -39 -33 41 0
-346 -37 -44 -39 -48 41 0
-345 -30 -39 -47 -48 41 0
-344 -43 -35 -44 -46 41 0
-343 -47 -36 -31 -46 41 0
-342 -35 -30 -29 -34 41 0
-341 -31 -47 -42 -40 41 0
-340 -44 -37 -49 -45 41 0
-339 -37 -50 -38 41 0
-338 -29 -34 -45 -47 27 0
-337 -37 -33 -26 -45 27 0
-336 -50 -47 -32 -37 27 0
-335 -26 -44 -36 27 0
-334 -33 -49 -31 -36 27 0
-333 -42 -41 -50 -47 27 0
-332 -35 -31 -33 -48 27 0
-331 -26 -50 -37 -38 27 0
-330 -28 -47 -44 27 0
-329 -46 -33 -49 -48 27 0
-328 -33 -44 -37 -29 40 0
-327 -50 -33 -28 40 0
-326 -29 -31 -33 -41 40 0
-325 -39 -30 -31 40 0
-324 -49 -32 -43 40 0
-323 -42 -34 -36 -30 40 0
-322 -45 -37 -28 40 0
-321 -44 -30 -28 -29 40 0
-320 -31 -47 -38 -32 40 0
-319 -28 -47 -34 40 0
-318 -44 -40 -42 35 0
-317 -40 -29 -38 -50 35 0
-316 -43 -26 -37 -28 35 0
-315 -27 -38 -47 -39 35 0
-314 -49 -38 -43 -44 35 0
-313 -31 -27 -38 -37 35 0
-312 -41 -46 -40 -42 35 0
-311 -41 -33 -45 -29 35 0
-310 -38 -44 -27 -45 35 0
-309 -50 -34 -38 -45 35 0
-308 -44 -48 -32 -42 36 0
-307 -48 -49 -26 -47 36 0
-306 -32 -46 -28 -37 36 0
-305 -35 -42 -33 36 0
-304 -34 -47 -45 -42 36 0
-303 -43 -48 -50 -28 36 0
-302 -45 -30 -37 -43 36 0
-301 -50 -26 -30 36 0
-300 -26 -44 -35 -42 36 0
-299 -39 -29 -35 -38 36 0
-298 -33 -32 -28 -38 44 0
-297 -37 -32 -43 -47 44 0
-296 -47 -30 -40 -31 44 0
-295 -46 -43 -33 -28 44 0
-294 -38 -43 -48 -29 44 0
-293 -45 -47 -30 -37 44 0
-292 -38 -37 -33 -31 44 0
-291 -37 -42 -28 -35 44 0
-290 -37 -36 -27 -33 44 0
-289 -36 -33 -45 -37 44 0
-288 -45 -44 -34 -33 43 0
-287 -42 -35 -27 -34 43 0
-286 -34 -40 -28 43 0
-285 -28 -50 -47 -46 43 0
-284 -31 -39 -36 -28 43 0
-283 -31 -48 -39 -34 43 0
-282 -27 -35 -28 -26 43 0
-281 -36 -47 -37 43 0
-280 -27 -36 -46 -30 43 0
-279 -33 -41 -48 -37 43 0
-278 -31 -37 -47 -29 30 0
-277 -27 -29 -37 30 0
-276 -36 -43 -45 30 0
-275 -47 -26 -42 -34 30 0
-274 -48 -36 -39 30 0
-273 -41 -50 -40 -46 30 0
-272 -34 -48 -31 30 0
-271 -26 -38 -34 -36 30 0
-270 -33 -49 -44 -43 30 0
-269 -37 -34 -31 -32 30 0
-268 -48 -35 -28 -42 47 0
-267 -38 -28 -35 47 0
-266 -48 -36 -43 -41 47 0
-265 -46 -38 -31 -50 47 0
-264 -29 -34 -42 47 0
-263 -36 -35 -50 -29 47 0
-262 -38 -46 -43 -28 47 0
-261 -27 -33 -35 47 0
-260 -33 -27 -50 -32 47 0
-259 -43 -26 -29 -37 47 0
-258 -41 -35 -39 46 0
-257 -29 -30 -34 46 0
-256 -36 -26 -32 -33 46 0
-255 -38 -32 -47 -44 46 0
-254 -35 -41 -33 46 0
-253 -28 -42 -45 -29 46 0
-252 -32 -31 -44 -36 46 0
-251 -31 -41 -30 -29 46 0
-250 -47 -29 -39 -33 46 0
-249 -35 -27 -33 -38 46 0
-248 -41 -30 -44 -26 33 0
-247 -47 -41 -40 -27 33 0
-246 -48 -44 -50 -32 33 0
-245 -32 -29 -36 -27 33 0
-244 -37 -46 -26 -42 33 0
-243 -39 -27 -26 -29 33 0
-242 -28 -44 -35 -32 33 0
-241 -38 -27 -50 -35 33 0
-240 -46 -28 -48 33 0
-239 -42 -40 33 0
-238 -33 -43 -37 -47 49 0
-237 -43 -50 -26 -40 49 0
-236 -34 -43 -39 49 0
-235 -37 -44 -45 -31 49 0
-234 -35 -32 -39 -44 49 0
-233 -35 -45 -28 49 0
-232 -29 -46 -26 49 0
-231 -50 -44 -33 -34 49 0
-230 -26 -34 -44 -39 49 0
-229 -36 -42 -29 49 0
-228 -30 -42 -46 -31 34 0
-227 -31 -43 -45 -37 34 0
-226 -43 -46 -39 -48 34 0
-225 -36 -28 -33 -42 34 0
-224 -35 -39 -48 -38 34 0
-223 -49 -42 -47 -39 34 0
-222 -42 -38 -26 34 0
-221 -42 -44 -47 -36 34 0
-220 -41 -43 -37 -36 34 0
-219 -50 -38 -41 34 0
-218 -27 -47 -30 -38 28 0
-217 -48 -36 -33 -44 28 0
-216 -44 -33 -27 -39 28 0
-215 -36 -26 -45 28 0
-214 -33 -32 -38 -30 28 0
-213 -40 -43 -26 -30 28 0
-212 -37 -30 -26 -32 28 0
-211 -34 -33 -50 -38 28 0
-210 -48 -34 -42 -50 28 0
-209 -39 -36 -30 28 0
-208 -32 -28 -35 -36 26 0
-207 -44 -36 -30 -39 26 0
-206 -35 -44 -43 -33 26 0
-205 -37 -41 -39 -33 26 0
-204 -34 -28 -47 -36 26 0
-203 -36 -34 -27 -43 26 0
-202 -40 -29 -47 -35 26 0
-201 -44 -29 -33 -40 26 0
-200 -49 -32 -39 26 0
-199 -35 -48 -33 26 0
-198 -44 -43 -45 -41 37 0
-197 -49 -48 -26 -40 37 0
-196 -42 -40 -46 -41 37 0
-195 -31 -49 -41 -26 37 0
-194 -48 -43 -50 37 0
-193 -48 -36 -28 -32 37 0
-192 -39 -34 -40 37 0
-191 -43 -50 -32 -33 37 0
-190 -26 -39 -40 37 0
-189 -31 -30 -33 -29 37 0
-188 -36 -46 42 0
-187 -45 -49 -32 -41 42 0
-186 -49 -39 -46 -36 42 0
-185 -29 -47 -48 -41 42 0
-184 -30 -37 -32 42 0
-183 -31 -30 -49 42 0
-182 -26 -34 -28 -50 42 0
-181 -27 -49 -47 -33 42 0
-180 -27 -39 -49 -31 42 0
-179 -29 -46 -32 -35 42 0
-178 -42 -37 -29 31 0
-177 -40 -46 -32 -27 31 0
-176 -30 -37 -49 -45 31 0
-175 -49 -35 -26 -40 31 0
-174 -30 -38 -32 31 0
-173 -43 -48 -29 31 0
-172 -29 -38 -42 -30 31 0
-171 -37 -50 -27 -34 31 0
-170 -32 -45 -33 -40 31 0
-169 -33 -43 -48 31 0
-168 -35 -39 -50 -31 38 0
-167 -36 -42 -48 -37 38 0
-166 -26 -39 -41 38 0
-165 -45 -34 -40 -39 38 0
-164 -33 -45 -43 -44 38 0
-163 -41 -28 -29 -45 38 0
-162 -26 -33 -35 -40 38 0
-161 -45 -26 -44 38 0
-160 -28 -30 -40 -39 38 0
-159 -35 -44 -42 -48 38 0
-158 -36 -47 -40 -44 32 0
-157 -41 -30 -37 32 0
-156 -47 -42 -45 -28 32 0
-155 -30 -39 -26 -27 32 0
-154 -49 -48 -30 -28 32 0
-153 -37 -31 -45 -47 32 0
-152 -40 -44 -46 -33 32 0
-151 -28 -44 -33 -48 32 0
-150 -38 -31 -43 -39 32 0
-149 -40 -42 -26 -37 32 0
-148 -34 -31 -47 -41 29 0
-147 -42 -27 -36 -47 29 0
-146 -35 -42 -27 -45 29 0
-145 -49 -36 -34 -38 29 0
-144 -34 -50 -47 -36 29 0
-143 -47 -45 -36 29 0
-142 -38 -37 -43 -41 29 0
-141 -49 -41 -36 -39 29 0
-140 -30 -31 -28 29 0
-139 -26 -35 -32 -49 29 0
-138 -46 -45 -40 -42 39 0
-137 -28 -50 -30 -31 39 0
-136 -33 -26 -44 -34 39 0
-135 -45 -37 -47 -31 39 0
-134 -50 -26 -43 -36 39 0
-133 -34 -37 -35 -48 39 0
-132 -41 -50 -28 -29 39 0
-131 -30 -28 -46 -29 39 0
-130 -26 -42 -44 39 0
-129 -38 -27 -40 -46 39 0
-128 29 49 50 48 0
-127 36 34 32 43 0
-126 36 35 37 48 0
-125 48 40 0
-124 27 42 41 28 0
-123 30 26 28 50 0
-122 46 47 30 0
-121 34 26 32 49 0
-120 44 45 28 34 0
-119 26 33 45 0
-118 38 31 41 29 0
-117 32 35 27 45 0
-116 48 43 42 30 0
-115 27 47 49 37 0
-114 32 41 49 0
-113 32 45 40 35 0
-112 50 38 0
-111 43 29 48 35 0
-110 31 41 27 26 0
-109 43 30 31 47 0
-108 31 49 29 39 0
-107 48 46 42 39 0
-106 26 32 49 0
-105 48 42 29 40 0
-104 37 38 41 50 0
-103 38 41 44 28 0
-102 43 34 30 31 0
-101 48 40 43 32 0
-100 31 36 29 32 0
-99 32 26 49 0
-98 34 33 44 26 0
-97 43 35 32 50 0
-96 40 45 36 0
-95 35 34 31 26 0
-94 36 40 34 44 0
-93 47 39 40 35 0
-92 44 27 40 0
-91 38 50 32 33 0
-90 26 40 35 50 0
-89 49 40 35 42 0
-88 35 33 31 34 0
-87 35 34 36 33 0
-86 38 39 29 43 0
-85 29 35 34 36 0
-84 30 31 49 44 0
-83 48 47 39 26 0
-82 42 36 38 44 0
-81 46 40 50 38 0
-80 37 39 47 45 0
-79 34 31 33 0
-78 31 33 32 0
-77 38 49 50 35 0
-76 47 26 33 0
-75 40 37 35 39 0
-74 48 27 36 46 0
-73 43 47 30 40 0
-72 47 38 35 41 0
-71 26 29 28 49 0
-70 49 34 43 30 0
-69 35 49 42 26 0
-68 44 47 35 33 0
-67 27 49 34 35 0
-66 31 32 36 0
-65 47 35 46 32 0
-64 50 31 48 38 0
-63 42 37 30 44 0
-62 44 31 37 49 0
-61 43 46 44 42 0
-60 48 28 36 35 0
-59 40 32 46 41 0
-58 32 44 30 0
-57 28 32 40 37 0
-56 26 36 33 0
-55 48 27 38 30 0
-54 45 26 46 0
-53 378 0
-53 377 0
-53 376 0
-53 375 0
-53 374 0
-53 373 0
-53 372 0
-53 371 0
-53 370 0
-53 369 0
-53 368 0
-53 367 0
-53 366 0
-53 365 0
-53 364 0
-53 363 0
-53 362 0
-53 361 0
-53 360 0
-53 359 0
-53 358 0
-53 357 0
-53 356 0
-53 355 0
-53 354 0
-53 353 0
-53 352 0
-53 351 0
-53 350 0
-53 349 0
-53 348 0
-53 347 0
-53 346 0
-53 345 0
-53 344 0
-53 343 0
-53 342 0
-53 341 0
-53 340 0
-53 339 0
-53 338 0
-53 337 0
-53 336 0
-53 335 0
-53 334 0
-53 333 0
-53 332 0
-53 331 0
-53 330 0
-53 329 0
-53 328 0
-53 327 0
-53 326 0
-53 325 0
-53 324 0
-53 323 0
-53 322 0
-53 321 0
-53 320 0
-53 319 0
-53 318 0
-53 317 0
-53 316 0
-53 315 0
-53 314 0
-53 313 0
-53 312 0
-53 311 0
-53 310 0
-53 309 0
-53 308 0
-53 307 0
-53 306 0
-53 305 0
-53 304 0
-53 303 0
-53 302 0
-53 301 0
-53 300 0
-53 299 0
-53 298 0
-53 297 0
-53 296 0
-53 295 0
-53 294 0
-53 293 0
-53 292 0
-53 291 0
-53 290 0
-53 289 0
-53 288 0
-53 287 0
-53 286 0
-53 285 0
-53 284 0
-53 283 0
-53 282 0
-53 281 0
-53 280 0
-53 279 0
-53 278 0
-53 277 0
-53 276 0
-53 275 0
-53 274 0
-53 273 0
-53 272 0
-53 271 0
-53 270 0
-53 269 0
-53 268 0
-53 267 0
-53 266 0
-53 265 0
-53 264 0
-53 263 0
-53 262 0
-53 261 0
-53 260 0
-53 259 0
-53 258 0
-53 257 0
-53 256 0
-53 255 0
-53 254 0
-53 253 0
-53 252 0
-53 251 0
-53 250 0
-53 249 0
-53 248 0
-53 247 0
-53 246 0
-53 245 0
-53 244 0
-53 243 0
-53 242 0
-53 241 0
-53 240 0
-53 239 0
-53 238 0
-53 237 0
-53 236 0
-53 235 0
-53 234 0
-53 233 0
-53 232 0
-53 231 0
-53 230 0
-53 229 0
-53 228 0
-53 227 0
-53 226 0
-53 225 0
-53 224 0
-53 223 0
-53 222 0
-53 221 0
-53 220 0
-53 219 0
-53 218 0
-53 217 0
-53 216 0
-53 215 0
-53 214 0
-53 213 0
-53 212 0
-53 211 0
-53 210 0
-53 209 0
-53 208 0
-53 207 0
-53 206 0
-53 205 0
-53 204 0
-53 203 0
-53 202 0
-53 201 0
-53 200 0
-53 199 0
-53 198 0
-53 197 0
-53 196 0
-53 195 0
-53 194 0
-53 193 0
-53 192 0
-53 191 0
-53 190 0
-53 189 0
-53 188 0
-53 187 0
-53 186 0
-53 185 0
-53 184 0
-53 183 0
-53 182 0
-53 181 0
-53 180 0
-53 179 0
-53 178 0
-53 177 0
-53 176 0
-53 175 0
-53 174 0
-53 173 0
-53 172 0
-53 171 0
-53 170 0
-53 169 0
-53 168 0
-53 167 0
-53 166 0
-53 165 0
-53 164 0
-53 163 0
-53 162 0
-53 161 0
-53 160 0
-53 159 0
-53 158 0
-53 157 0
-53 156 0
-53 155 0
-53 154 0
-53 153 0
-53 152 0
-53 151 0
-53 150 0
-53 149 0
-53 148 0
-53 147 0
-53 146 0
-53 145 0
-53 144 0
-53 143 0
-53 142 0
-53 141 0
-53 140 0
-53 139 0
-53 138 0
-53 137 0
-53 136 0
-53 135 0
-53 134 0
-53 133 0
-53 132 0
-53 131 0
-53 130 0
-53 129 0
-53 128 0
-53 127 0
-53 126 0
-53 125 0
-53 124 0
-53 123 0
-53 122 0
-53 121 0
-53 120 0
-53 119 0
-53 118 0
-53 117 0
-53 116 0
-53 115 0
-53 114 0
-53 113 0
-53 112 0
-53 111 0
-53 110 0
-53 109 0
-53 108 0
-53 107 0
-53 106 0
-53 105 0
-53 104 0
-53 103 0
-53 102 0
-53 101 0
-53 100 0
-53 99 0
-53 98 0
-53 97 0
-53 96 0
-53 95 0
-53 94 0
-53 93 0
-53 92 0
-53 91 0
-53 90 0
-53 89 0
-53 88 0
-53 87 0
-53 86 0
-53 85 0
-53 84 0
-53 83 0
-53 82 0
-53 81 0
-53 80 0
-53 79 0
-53 78 0
-53 77 0
-53 76 0
-53 75 0
-53 74 0
-53 73 0
-53 72 0
-53 71 0
-53 70 0
-53 69 0
-53 68 0
-53 67 0
-53 66 0
-53 65 0
-53 64 0
-53 63 0
-53 62 0
-53 61 0
-53 60 0
-53 59 0
-53 58 0
-53 57 0
-53 56 0
-53 55 0
-53 54 0
-52 703 702 701 700 699 698 697 696 695 694 693 692 691 690 689 688 687 686 685 684 683 682 681 680 679 678 677 676 675 674 673 672 671 670 669 668 667 666 665 664 663 662 661 660 659 658 657 656 655 654 653 652 651 650 649 648 647 646 645 644 643 642 641 640 639 638 637 636 635 634 633 632 631 630 629 628 627 626 625 624 623 622 621 620 619 618 617 616 615 614 613 612 611 610 609 608 607 606 605 604 603 602 601 600 599 598 597 596 595 594 593 592 591 590 589 588 587 586 585 584 583 582 581 580 579 578 577 576 575 574 573 572 571 570 569 568 567 566 565 564 563 562 561 560 559 558 557 556 555 554 553 552 551 550 549 548 547 546 545 544 543 542 541 540 539 538 537 536 535 534 533 532 531 530 529 528 527 526 525 524 523 522 521 520 519 518 517 516 515 514 513 512 511 510 509 508 507 506 505 504 503 502 501 500 499 498 497 496 495 494 493 492 491 490 489 488 487 486 485 484 483 482 481 480 479 478 477 476 475 474 473 472 471 470 469 468 467 466 465 464 463 462 461 460 459 458 457 456 455 454 453 452 451 450 449 448 447 446 445 444 443 442 441 440 439 438 437 436 435 434 433 432 431 430 429 428 427 426 425 424 423 422 421 420 419 418 417 416 415 414 413 412 411 410 409 408 407 406 405 404 403 402 401 400 399 398 397 396 395 394 393 392 391 390 389 388 387 386 385 384 383 382 381 380 379 53 0
-51 779 0
-51 778 0
-51 777 0
-51 776 0
-51 775 0
-51 774 0
-51 773 0
-51 772 0
-51 771 0
-51 770 0
-51 769 0
-51 768 0
-51 767 0
-51 766 0
-51 765 0
-51 764 0
-51 763 0
-51 762 0
-51 761 0
-51 760 0
-51 759 0
-51 758 0
-51 757 0
-51 756 0
-51 755 0
-51 704 0
-51 52 0
51 -23 -20 0

